 &BANDS
   filband         =  'x025.bands.dat',
   lsym            =  .true.,
   outdir          =  './temp'
   prefix          =  'x025'
 /


