 &PROJWFC
   DeltaE          =  0.1,
   Emax            =  20.0,
   Emin            =  -20.0,
   filpdos         =  'x025.pdos',
   outdir          =  './temp',
   prefix          =  'x025',
 /


