&CONTROL
    calculation   = "scf"
    pseudo_dir    = "../pseudo"
    outdir        = './temp'
    prefix        = 'x025'
/
&SYSTEM
	celldm(1)                 = 20.64128958
    degauss                   = 1.00000e-02
    ecutwfc                   = 150
    ibrav                     = 0
    nat                       = 40
    nspin                     = 2
    ntyp                      = 4
    occupations               = "smearing"
    smearing                  = "gaussian"
    starting_magnetization(1) = 2.00000e-01
    starting_magnetization(2) = 0.00000e+00
    starting_magnetization(3) = 0.00000e+00
/
&ELECTRONS
    electron_maxstep = 200
    mixing_beta      = 4.00000e-01
/

K_POINTS {automatic}
 4  6  7  1 1 1
ATOMIC_SPECIES
Fe     55.84500  Fe.pbe-sp-hgh.UPF
In    114.81800  In.pbe-hgh.UPF
Sn    118.71000  Sn.pbe-hgh.UPF
O      15.99940  O.pbe-hgh.UPF
CELL_PARAMETERS (alat)
   0.995244755  -0.005551130  -0.001567887
  -0.004021564   0.728587132   0.000240220
  -0.000792451   0.000181708   0.497044106

ATOMIC_POSITIONS (crystal)
Fe       0.012332013   0.255714938   0.985948340
Fe       0.512370013   0.255887818   0.985923413
Fe       0.235740580   0.758980099   0.490318240
Fe       0.735731873   0.758975973   0.490472262
Fe       0.487627987   0.744112182   0.014077587
Fe       0.987665987   0.744285062   0.014052660
Fe       0.264267127   0.241024027   0.509526738
Fe       0.764258420   0.241019901   0.509680760
In       0.000000000   0.000000000   0.500000000
In       0.499999000   0.000000000   0.500000000
Sn       0.250015664   0.000043234  -0.000062259
Sn       0.749983336  -0.000043234   0.000062259
Sn       0.000000000   0.500000000   0.500000000
Sn       0.499999000   0.500000000   0.500000000
Sn       0.249971737   0.500009414  -0.000043514
Sn       0.750027263   0.499990586   0.000043514
O        0.084335400   0.564553010   0.838291331
O        0.584321023   0.564358249   0.838377993
O        0.164346641   0.419433429   0.332624262
O        0.664416015   0.419479964   0.332757488
O        0.413584911   0.083221547   0.153058805
O        0.913628056   0.083009290   0.153058077
O        0.328885754   0.933719027   0.668627839
O        0.828870205   0.933692929   0.668723744
O        0.415676977   0.435641751   0.161623007
O        0.915662600   0.435446990   0.161709669
O        0.335581985   0.580520036   0.667244512
O        0.835652359   0.580566571   0.667377738
O        0.086369944   0.916990710   0.846942923
O        0.586413089   0.916778453   0.846942195
O        0.171128795   0.066307071   0.331278256
O        0.671112246   0.066280973   0.331374161
O        0.052432494   0.740034833   0.365991443
O        0.552369559   0.740039721   0.366095847
O        0.199578291   0.250210027   0.863972200
O        0.699610965   0.250147947   0.864269651
O        0.447628441   0.259960279   0.633905153
O        0.947565506   0.259965167   0.634009557
O        0.300388035   0.749852053   0.135731349
O        0.800420709   0.749789973   0.136028800
