&CONTROL
    calculation   = "bands"
    pseudo_dir    = "../pseudo"
    outdir        = './temp'
    prefix        = 'x025'
/
&SYSTEM
	celldm(1)                 = 20.64128958
    degauss                   = 1.00000e-02
    ecutwfc                   = 150
    ibrav                     = 0
    nat                       = 40
    nspin                     = 2
    ntyp                      = 4
    occupations               = "smearing"
    smearing                  = "gaussian"
    starting_magnetization(1) = 2.00000e-01
    starting_magnetization(2) = 0.00000e+00
    starting_magnetization(3) = 0.00000e+00
    nbnd                      = 318
/
&ELECTRONS
    electron_maxstep = 200
    mixing_beta      = 4.00000e-01
/

ATOMIC_SPECIES
Fe     55.84500  Fe.pbe-sp-hgh.UPF
In    114.81800  In.pbe-hgh.UPF
Sn    118.71000  Sn.pbe-hgh.UPF
O      15.99940  O.pbe-hgh.UPF
CELL_PARAMETERS (alat)
   0.995244755  -0.005551130  -0.001567887
  -0.004021564   0.728587132   0.000240220
  -0.000792451   0.000181708   0.497044106

ATOMIC_POSITIONS (crystal)
Fe       0.012332013   0.255714938   0.985948340
Fe       0.512370013   0.255887818   0.985923413
Fe       0.235740580   0.758980099   0.490318240
Fe       0.735731873   0.758975973   0.490472262
Fe       0.487627987   0.744112182   0.014077587
Fe       0.987665987   0.744285062   0.014052660
Fe       0.264267127   0.241024027   0.509526738
Fe       0.764258420   0.241019901   0.509680760
In       0.000000000   0.000000000   0.500000000
In       0.499999000   0.000000000   0.500000000
Sn       0.250015664   0.000043234  -0.000062259
Sn       0.749983336  -0.000043234   0.000062259
Sn       0.000000000   0.500000000   0.500000000
Sn       0.499999000   0.500000000   0.500000000
Sn       0.249971737   0.500009414  -0.000043514
Sn       0.750027263   0.499990586   0.000043514
O        0.084335400   0.564553010   0.838291331
O        0.584321023   0.564358249   0.838377993
O        0.164346641   0.419433429   0.332624262
O        0.664416015   0.419479964   0.332757488
O        0.413584911   0.083221547   0.153058805
O        0.913628056   0.083009290   0.153058077
O        0.328885754   0.933719027   0.668627839
O        0.828870205   0.933692929   0.668723744
O        0.415676977   0.435641751   0.161623007
O        0.915662600   0.435446990   0.161709669
O        0.335581985   0.580520036   0.667244512
O        0.835652359   0.580566571   0.667377738
O        0.086369944   0.916990710   0.846942923
O        0.586413089   0.916778453   0.846942195
O        0.171128795   0.066307071   0.331278256
O        0.671112246   0.066280973   0.331374161
O        0.052432494   0.740034833   0.365991443
O        0.552369559   0.740039721   0.366095847
O        0.199578291   0.250210027   0.863972200
O        0.699610965   0.250147947   0.864269651
O        0.447628441   0.259960279   0.633905153
O        0.947565506   0.259965167   0.634009557
O        0.300388035   0.749852053   0.135731349
O        0.800420709   0.749789973   0.136028800

K_POINTS crystal
296
    0.0000000000     0.0000000000     0.0000000000 1
    0.0357142857     0.0000000000     0.0000000000 1
    0.0714285714     0.0000000000     0.0000000000 1
    0.1071428571     0.0000000000     0.0000000000 1
    0.1428571429     0.0000000000     0.0000000000 1
    0.1785714286     0.0000000000     0.0000000000 1
    0.2142857143     0.0000000000     0.0000000000 1
    0.2500000000     0.0000000000     0.0000000000 1
    0.2857142857     0.0000000000     0.0000000000 1
    0.3214285714     0.0000000000     0.0000000000 1
    0.3571428571     0.0000000000     0.0000000000 1
    0.3928571429     0.0000000000     0.0000000000 1
    0.4285714286     0.0000000000     0.0000000000 1
    0.4642857143     0.0000000000     0.0000000000 1
    0.5000000000     0.0000000000     0.0000000000 1
    0.0000000000     0.5000000000     0.0000000000 1
    0.0000000000     0.4772727273     0.0000000000 1
    0.0000000000     0.4545454545     0.0000000000 1
    0.0000000000     0.4318181818     0.0000000000 1
    0.0000000000     0.4090909091     0.0000000000 1
    0.0000000000     0.3863636364     0.0000000000 1
    0.0000000000     0.3636363636     0.0000000000 1
    0.0000000000     0.3409090909     0.0000000000 1
    0.0000000000     0.3181818182     0.0000000000 1
    0.0000000000     0.2954545455     0.0000000000 1
    0.0000000000     0.2727272727     0.0000000000 1
    0.0000000000     0.2500000000     0.0000000000 1
    0.0000000000     0.2272727273     0.0000000000 1
    0.0000000000     0.2045454545     0.0000000000 1
    0.0000000000     0.1818181818     0.0000000000 1
    0.0000000000     0.1590909091     0.0000000000 1
    0.0000000000     0.1363636364     0.0000000000 1
    0.0000000000     0.1136363636     0.0000000000 1
    0.0000000000     0.0909090909     0.0000000000 1
    0.0000000000     0.0681818182     0.0000000000 1
    0.0000000000     0.0454545455     0.0000000000 1
    0.0000000000     0.0227272727     0.0000000000 1
    0.0000000000     0.0000000000     0.0000000000 1
    0.0000000000     0.0000000000     0.0500000000 1
    0.0000000000     0.0000000000     0.1000000000 1
    0.0000000000     0.0000000000     0.1500000000 1
    0.0000000000     0.0000000000     0.2000000000 1
    0.0000000000     0.0000000000     0.2500000000 1
    0.0000000000     0.0000000000     0.3000000000 1
    0.0000000000     0.0000000000     0.3500000000 1
    0.0000000000     0.0000000000     0.4000000000 1
    0.0000000000     0.0000000000     0.4500000000 1
    0.0000000000     0.0000000000     0.5000000000 1
    0.5000000000     0.5000000000     0.5000000000 1
    0.4827586207     0.4827586207     0.4827586207 1
    0.4655172414     0.4655172414     0.4655172414 1
    0.4482758621     0.4482758621     0.4482758621 1
    0.4310344828     0.4310344828     0.4310344828 1
    0.4137931034     0.4137931034     0.4137931034 1
    0.3965517241     0.3965517241     0.3965517241 1
    0.3793103448     0.3793103448     0.3793103448 1
    0.3620689655     0.3620689655     0.3620689655 1
    0.3448275862     0.3448275862     0.3448275862 1
    0.3275862069     0.3275862069     0.3275862069 1
    0.3103448276     0.3103448276     0.3103448276 1
    0.2931034483     0.2931034483     0.2931034483 1
    0.2758620690     0.2758620690     0.2758620690 1
    0.2586206897     0.2586206897     0.2586206897 1
    0.2413793103     0.2413793103     0.2413793103 1
    0.2241379310     0.2241379310     0.2241379310 1
    0.2068965517     0.2068965517     0.2068965517 1
    0.1896551724     0.1896551724     0.1896551724 1
    0.1724137931     0.1724137931     0.1724137931 1
    0.1551724138     0.1551724138     0.1551724138 1
    0.1379310345     0.1379310345     0.1379310345 1
    0.1206896552     0.1206896552     0.1206896552 1
    0.1034482759     0.1034482759     0.1034482759 1
    0.0862068966     0.0862068966     0.0862068966 1
    0.0689655172     0.0689655172     0.0689655172 1
    0.0517241379     0.0517241379     0.0517241379 1
    0.0344827586     0.0344827586     0.0344827586 1
    0.0172413793     0.0172413793     0.0172413793 1
    0.0000000000     0.0000000000     0.0000000000 1
    0.0000000000     0.0208333333     0.0208333333 1
    0.0000000000     0.0416666667     0.0416666667 1
    0.0000000000     0.0625000000     0.0625000000 1
    0.0000000000     0.0833333333     0.0833333333 1
    0.0000000000     0.1041666667     0.1041666667 1
    0.0000000000     0.1250000000     0.1250000000 1
    0.0000000000     0.1458333333     0.1458333333 1
    0.0000000000     0.1666666667     0.1666666667 1
    0.0000000000     0.1875000000     0.1875000000 1
    0.0000000000     0.2083333333     0.2083333333 1
    0.0000000000     0.2291666667     0.2291666667 1
    0.0000000000     0.2500000000     0.2500000000 1
    0.0000000000     0.2708333333     0.2708333333 1
    0.0000000000     0.2916666667     0.2916666667 1
    0.0000000000     0.3125000000     0.3125000000 1
    0.0000000000     0.3333333333     0.3333333333 1
    0.0000000000     0.3541666667     0.3541666667 1
    0.0000000000     0.3750000000     0.3750000000 1
    0.0000000000     0.3958333333     0.3958333333 1
    0.0000000000     0.4166666667     0.4166666667 1
    0.0000000000     0.4375000000     0.4375000000 1
    0.0000000000     0.4583333333     0.4583333333 1
    0.0000000000     0.4791666667     0.4791666667 1
    0.0000000000     0.5000000000     0.5000000000 1
    0.5000000000     0.0000000000     0.5000000000 1
    0.4722222222     0.0000000000     0.4722222222 1
    0.4444444444     0.0000000000     0.4444444444 1
    0.4166666667     0.0000000000     0.4166666667 1
    0.3888888889     0.0000000000     0.3888888889 1
    0.3611111111     0.0000000000     0.3611111111 1
    0.3333333333     0.0000000000     0.3333333333 1
    0.3055555556     0.0000000000     0.3055555556 1
    0.2777777778     0.0000000000     0.2777777778 1
    0.2500000000     0.0000000000     0.2500000000 1
    0.2222222222     0.0000000000     0.2222222222 1
    0.1944444444     0.0000000000     0.1944444444 1
    0.1666666667     0.0000000000     0.1666666667 1
    0.1388888889     0.0000000000     0.1388888889 1
    0.1111111111     0.0000000000     0.1111111111 1
    0.0833333333     0.0000000000     0.0833333333 1
    0.0555555556     0.0000000000     0.0555555556 1
    0.0277777778     0.0000000000     0.0277777778 1
    0.0000000000     0.0000000000     0.0000000000 1
    0.0185185185     0.0185185185     0.0000000000 1
    0.0370370370     0.0370370370     0.0000000000 1
    0.0555555556     0.0555555556     0.0000000000 1
    0.0740740741     0.0740740741     0.0000000000 1
    0.0925925926     0.0925925926     0.0000000000 1
    0.1111111111     0.1111111111     0.0000000000 1
    0.1296296296     0.1296296296     0.0000000000 1
    0.1481481481     0.1481481481     0.0000000000 1
    0.1666666667     0.1666666667     0.0000000000 1
    0.1851851852     0.1851851852     0.0000000000 1
    0.2037037037     0.2037037037     0.0000000000 1
    0.2222222222     0.2222222222     0.0000000000 1
    0.2407407407     0.2407407407     0.0000000000 1
    0.2592592593     0.2592592593     0.0000000000 1
    0.2777777778     0.2777777778     0.0000000000 1
    0.2962962963     0.2962962963     0.0000000000 1
    0.3148148148     0.3148148148     0.0000000000 1
    0.3333333333     0.3333333333     0.0000000000 1
    0.3518518519     0.3518518519     0.0000000000 1
    0.3703703704     0.3703703704     0.0000000000 1
    0.3888888889     0.3888888889     0.0000000000 1
    0.4074074074     0.4074074074     0.0000000000 1
    0.4259259259     0.4259259259     0.0000000000 1
    0.4444444444     0.4444444444     0.0000000000 1
    0.4629629630     0.4629629630     0.0000000000 1
    0.4814814815     0.4814814815     0.0000000000 1
    0.5000000000     0.5000000000     0.0000000000 1
    0.0000000000     0.0000000000     0.0000000000 1
   -0.0357142857     0.0000000000     0.0000000000 1
   -0.0714285714     0.0000000000     0.0000000000 1
   -0.1071428571     0.0000000000     0.0000000000 1
   -0.1428571429     0.0000000000     0.0000000000 1
   -0.1785714286     0.0000000000     0.0000000000 1
   -0.2142857143     0.0000000000     0.0000000000 1
   -0.2500000000     0.0000000000     0.0000000000 1
   -0.2857142857     0.0000000000     0.0000000000 1
   -0.3214285714     0.0000000000     0.0000000000 1
   -0.3571428571     0.0000000000     0.0000000000 1
   -0.3928571429     0.0000000000     0.0000000000 1
   -0.4285714286     0.0000000000     0.0000000000 1
   -0.4642857143     0.0000000000     0.0000000000 1
   -0.5000000000     0.0000000000     0.0000000000 1
    0.0000000000    -0.5000000000     0.0000000000 1
    0.0000000000    -0.4772727273     0.0000000000 1
    0.0000000000    -0.4545454545     0.0000000000 1
    0.0000000000    -0.4318181818     0.0000000000 1
    0.0000000000    -0.4090909091     0.0000000000 1
    0.0000000000    -0.3863636364     0.0000000000 1
    0.0000000000    -0.3636363636     0.0000000000 1
    0.0000000000    -0.3409090909     0.0000000000 1
    0.0000000000    -0.3181818182     0.0000000000 1
    0.0000000000    -0.2954545455     0.0000000000 1
    0.0000000000    -0.2727272727     0.0000000000 1
    0.0000000000    -0.2500000000     0.0000000000 1
    0.0000000000    -0.2272727273     0.0000000000 1
    0.0000000000    -0.2045454545     0.0000000000 1
    0.0000000000    -0.1818181818     0.0000000000 1
    0.0000000000    -0.1590909091     0.0000000000 1
    0.0000000000    -0.1363636364     0.0000000000 1
    0.0000000000    -0.1136363636     0.0000000000 1
    0.0000000000    -0.0909090909     0.0000000000 1
    0.0000000000    -0.0681818182     0.0000000000 1
    0.0000000000    -0.0454545455     0.0000000000 1
    0.0000000000    -0.0227272727     0.0000000000 1
    0.0000000000     0.0000000000     0.0000000000 1
    0.0000000000     0.0000000000    -0.0500000000 1
    0.0000000000     0.0000000000    -0.1000000000 1
    0.0000000000     0.0000000000    -0.1500000000 1
    0.0000000000     0.0000000000    -0.2000000000 1
    0.0000000000     0.0000000000    -0.2500000000 1
    0.0000000000     0.0000000000    -0.3000000000 1
    0.0000000000     0.0000000000    -0.3500000000 1
    0.0000000000     0.0000000000    -0.4000000000 1
    0.0000000000     0.0000000000    -0.4500000000 1
    0.0000000000     0.0000000000    -0.5000000000 1
   -0.5000000000    -0.5000000000    -0.5000000000 1
   -0.4827586207    -0.4827586207    -0.4827586207 1
   -0.4655172414    -0.4655172414    -0.4655172414 1
   -0.4482758621    -0.4482758621    -0.4482758621 1
   -0.4310344828    -0.4310344828    -0.4310344828 1
   -0.4137931034    -0.4137931034    -0.4137931034 1
   -0.3965517241    -0.3965517241    -0.3965517241 1
   -0.3793103448    -0.3793103448    -0.3793103448 1
   -0.3620689655    -0.3620689655    -0.3620689655 1
   -0.3448275862    -0.3448275862    -0.3448275862 1
   -0.3275862069    -0.3275862069    -0.3275862069 1
   -0.3103448276    -0.3103448276    -0.3103448276 1
   -0.2931034483    -0.2931034483    -0.2931034483 1
   -0.2758620690    -0.2758620690    -0.2758620690 1
   -0.2586206897    -0.2586206897    -0.2586206897 1
   -0.2413793103    -0.2413793103    -0.2413793103 1
   -0.2241379310    -0.2241379310    -0.2241379310 1
   -0.2068965517    -0.2068965517    -0.2068965517 1
   -0.1896551724    -0.1896551724    -0.1896551724 1
   -0.1724137931    -0.1724137931    -0.1724137931 1
   -0.1551724138    -0.1551724138    -0.1551724138 1
   -0.1379310345    -0.1379310345    -0.1379310345 1
   -0.1206896552    -0.1206896552    -0.1206896552 1
   -0.1034482759    -0.1034482759    -0.1034482759 1
   -0.0862068966    -0.0862068966    -0.0862068966 1
   -0.0689655172    -0.0689655172    -0.0689655172 1
   -0.0517241379    -0.0517241379    -0.0517241379 1
   -0.0344827586    -0.0344827586    -0.0344827586 1
   -0.0172413793    -0.0172413793    -0.0172413793 1
    0.0000000000     0.0000000000     0.0000000000 1
    0.0000000000    -0.0208333333    -0.0208333333 1
    0.0000000000    -0.0416666667    -0.0416666667 1
    0.0000000000    -0.0625000000    -0.0625000000 1
    0.0000000000    -0.0833333333    -0.0833333333 1
    0.0000000000    -0.1041666667    -0.1041666667 1
    0.0000000000    -0.1250000000    -0.1250000000 1
    0.0000000000    -0.1458333333    -0.1458333333 1
    0.0000000000    -0.1666666667    -0.1666666667 1
    0.0000000000    -0.1875000000    -0.1875000000 1
    0.0000000000    -0.2083333333    -0.2083333333 1
    0.0000000000    -0.2291666667    -0.2291666667 1
    0.0000000000    -0.2500000000    -0.2500000000 1
    0.0000000000    -0.2708333333    -0.2708333333 1
    0.0000000000    -0.2916666667    -0.2916666667 1
    0.0000000000    -0.3125000000    -0.3125000000 1
    0.0000000000    -0.3333333333    -0.3333333333 1
    0.0000000000    -0.3541666667    -0.3541666667 1
    0.0000000000    -0.3750000000    -0.3750000000 1
    0.0000000000    -0.3958333333    -0.3958333333 1
    0.0000000000    -0.4166666667    -0.4166666667 1
    0.0000000000    -0.4375000000    -0.4375000000 1
    0.0000000000    -0.4583333333    -0.4583333333 1
    0.0000000000    -0.4791666667    -0.4791666667 1
    0.0000000000    -0.5000000000    -0.5000000000 1
   -0.5000000000     0.0000000000    -0.5000000000 1
   -0.4722222222     0.0000000000    -0.4722222222 1
   -0.4444444444     0.0000000000    -0.4444444444 1
   -0.4166666667     0.0000000000    -0.4166666667 1
   -0.3888888889     0.0000000000    -0.3888888889 1
   -0.3611111111     0.0000000000    -0.3611111111 1
   -0.3333333333     0.0000000000    -0.3333333333 1
   -0.3055555556     0.0000000000    -0.3055555556 1
   -0.2777777778     0.0000000000    -0.2777777778 1
   -0.2500000000     0.0000000000    -0.2500000000 1
   -0.2222222222     0.0000000000    -0.2222222222 1
   -0.1944444444     0.0000000000    -0.1944444444 1
   -0.1666666667     0.0000000000    -0.1666666667 1
   -0.1388888889     0.0000000000    -0.1388888889 1
   -0.1111111111     0.0000000000    -0.1111111111 1
   -0.0833333333     0.0000000000    -0.0833333333 1
   -0.0555555556     0.0000000000    -0.0555555556 1
   -0.0277777778     0.0000000000    -0.0277777778 1
    0.0000000000     0.0000000000     0.0000000000 1
   -0.0185185185    -0.0185185185     0.0000000000 1
   -0.0370370370    -0.0370370370     0.0000000000 1
   -0.0555555556    -0.0555555556     0.0000000000 1
   -0.0740740741    -0.0740740741     0.0000000000 1
   -0.0925925926    -0.0925925926     0.0000000000 1
   -0.1111111111    -0.1111111111     0.0000000000 1
   -0.1296296296    -0.1296296296     0.0000000000 1
   -0.1481481481    -0.1481481481     0.0000000000 1
   -0.1666666667    -0.1666666667     0.0000000000 1
   -0.1851851852    -0.1851851852     0.0000000000 1
   -0.2037037037    -0.2037037037     0.0000000000 1
   -0.2222222222    -0.2222222222     0.0000000000 1
   -0.2407407407    -0.2407407407     0.0000000000 1
   -0.2592592593    -0.2592592593     0.0000000000 1
   -0.2777777778    -0.2777777778     0.0000000000 1
   -0.2962962963    -0.2962962963     0.0000000000 1
   -0.3148148148    -0.3148148148     0.0000000000 1
   -0.3333333333    -0.3333333333     0.0000000000 1
   -0.3518518519    -0.3518518519     0.0000000000 1
   -0.3703703704    -0.3703703704     0.0000000000 1
   -0.3888888889    -0.3888888889     0.0000000000 1
   -0.4074074074    -0.4074074074     0.0000000000 1
   -0.4259259259    -0.4259259259     0.0000000000 1
   -0.4444444444    -0.4444444444     0.0000000000 1
   -0.4629629630    -0.4629629630     0.0000000000 1
   -0.4814814815    -0.4814814815     0.0000000000 1
   -0.5000000000    -0.5000000000     0.0000000000 1
