 &BANDS
   filband         =  'x000.bands.dat',
   lsym            =  .true.,
   outdir          =  './temp'
   prefix          =  'x000'
 /


