&CONTROL
    calculation   = "nscf"
    etot_conv_thr =  1.00000e-06
    pseudo_dir    = "../pseudo"
    outdir        = './temp'
    prefix        = 'x000'
/
&SYSTEM
	A                         = 5.134074
	B                         = 7.473752
	C                         = 5.055977
    degauss                   = 1.00000e-02
    ecutwfc                   = 150
    ibrav                     = 8
    nat                       = 20
    nspin                     = 2
    ntyp                      = 3
    occupations               = "smearing"
    smearing                  = "gaussian"
    starting_magnetization(1) = 2.00000e-01
    starting_magnetization(2) = 0.00000e+00
    starting_magnetization(3) = 0.00000e+00
    nbnd                      = 152
/
&ELECTRONS
    electron_maxstep = 200
    mixing_beta      = 4.00000e-01
/
K_POINTS {automatic}
 6  4  6  1 1 1
ATOMIC_SPECIES
Fe     55.84500  Fe.pbe-sp-hgh.UPF
Sn    118.71000  Sn.pbe-hgh.UPF
O      15.99940  O.pbe-hgh.UPF

ATOMIC_POSITIONS (crystal)
Fe       0.064405965   0.250000000   1.000471947
Fe       0.935595035   0.750000000  -0.000470947
Fe       0.435595035   0.750000000   0.500471947
Fe       0.564405965   0.250000000   0.499529053
Sn       0.000000000   0.000000000   0.500000000
Sn       0.500000000   0.000000000   0.000000000
Sn       0.500000000   0.500000000   0.000000000
Sn       0.000000000   0.500000000   0.500000000
O        0.163118736   0.589421062   0.842777765
O        0.836882264   0.410577938   0.157223235
O        0.336882264   0.410577938   0.342777765
O        0.663118736   0.589421062   0.657223235
O        0.663118736   0.910577938   0.657223235
O        0.336882264   0.089421062   0.342777765
O        0.836882264   0.089421062   0.157223235
O        0.163118736   0.910577938   0.842777765
O        0.100988969   0.750000000   0.330169354
O        0.899012031   0.250000000   0.669831646
O        0.399012031   0.250000000   0.830169354
O        0.600988969   0.750000000   0.169831646
