&CONTROL
    calculation   = "bands"
    pseudo_dir    = "../pseudo"
    outdir        = './temp'
    prefix        = 'x000'
/
&SYSTEM
	A                         = 5.134074
	B                         = 7.473752
	C                         = 5.055977
    degauss                   = 1.00000e-02
    ecutwfc                   = 150
    ibrav                     = 8
    nat                       = 20
    nspin                     = 2
    ntyp                      = 3
    occupations               = "smearing"
    smearing                  = "gaussian"
    starting_magnetization(1) = 2.00000e-01
    starting_magnetization(2) = 0.00000e+00
    starting_magnetization(3) = 0.00000e+00
    nbnd                      = 152
/
&ELECTRONS
    electron_maxstep = 200
    mixing_beta      = 4.00000e-01
/

ATOMIC_SPECIES
Fe     55.84500  Fe.pbe-sp-hgh.UPF
Sn    118.71000  Sn.pbe-hgh.UPF
O      15.99940  O.pbe-hgh.UPF

ATOMIC_POSITIONS (crystal)
Fe       0.064405965   0.250000000   1.000471947
Fe       0.935595035   0.750000000  -0.000470947
Fe       0.435595035   0.750000000   0.500471947
Fe       0.564405965   0.250000000   0.499529053
Sn       0.000000000   0.000000000   0.500000000
Sn       0.500000000   0.000000000   0.000000000
Sn       0.500000000   0.500000000   0.000000000
Sn       0.000000000   0.500000000   0.500000000
O        0.163118736   0.589421062   0.842777765
O        0.836882264   0.410577938   0.157223235
O        0.336882264   0.410577938   0.342777765
O        0.663118736   0.589421062   0.657223235
O        0.663118736   0.910577938   0.657223235
O        0.336882264   0.089421062   0.342777765
O        0.836882264   0.089421062   0.157223235
O        0.163118736   0.910577938   0.842777765
O        0.100988969   0.750000000   0.330169354
O        0.899012031   0.250000000   0.669831646
O        0.399012031   0.250000000   0.830169354
O        0.600988969   0.750000000   0.169831646

K_POINTS crystal
248
    0.0000000000     0.0000000000     0.0000000000 1
    0.0217391304     0.0000000000     0.0000000000 1
    0.0434782609     0.0000000000     0.0000000000 1
    0.0652173913     0.0000000000     0.0000000000 1
    0.0869565217     0.0000000000     0.0000000000 1
    0.1086956522     0.0000000000     0.0000000000 1
    0.1304347826     0.0000000000     0.0000000000 1
    0.1521739130     0.0000000000     0.0000000000 1
    0.1739130435     0.0000000000     0.0000000000 1
    0.1956521739     0.0000000000     0.0000000000 1
    0.2173913043     0.0000000000     0.0000000000 1
    0.2391304348     0.0000000000     0.0000000000 1
    0.2608695652     0.0000000000     0.0000000000 1
    0.2826086957     0.0000000000     0.0000000000 1
    0.3043478261     0.0000000000     0.0000000000 1
    0.3260869565     0.0000000000     0.0000000000 1
    0.3478260870     0.0000000000     0.0000000000 1
    0.3695652174     0.0000000000     0.0000000000 1
    0.3913043478     0.0000000000     0.0000000000 1
    0.4130434783     0.0000000000     0.0000000000 1
    0.4347826087     0.0000000000     0.0000000000 1
    0.4565217391     0.0000000000     0.0000000000 1
    0.4782608696     0.0000000000     0.0000000000 1
    0.5000000000     0.0000000000     0.0000000000 1
    0.5000000000     0.0333333333     0.0000000000 1
    0.5000000000     0.0666666667     0.0000000000 1
    0.5000000000     0.1000000000     0.0000000000 1
    0.5000000000     0.1333333333     0.0000000000 1
    0.5000000000     0.1666666667     0.0000000000 1
    0.5000000000     0.2000000000     0.0000000000 1
    0.5000000000     0.2333333333     0.0000000000 1
    0.5000000000     0.2666666667     0.0000000000 1
    0.5000000000     0.3000000000     0.0000000000 1
    0.5000000000     0.3333333333     0.0000000000 1
    0.5000000000     0.3666666667     0.0000000000 1
    0.5000000000     0.4000000000     0.0000000000 1
    0.5000000000     0.4333333333     0.0000000000 1
    0.5000000000     0.4666666667     0.0000000000 1
    0.5000000000     0.5000000000     0.0000000000 1
    0.4782608696     0.5000000000     0.0000000000 1
    0.4565217391     0.5000000000     0.0000000000 1
    0.4347826087     0.5000000000     0.0000000000 1
    0.4130434783     0.5000000000     0.0000000000 1
    0.3913043478     0.5000000000     0.0000000000 1
    0.3695652174     0.5000000000     0.0000000000 1
    0.3478260870     0.5000000000     0.0000000000 1
    0.3260869565     0.5000000000     0.0000000000 1
    0.3043478261     0.5000000000     0.0000000000 1
    0.2826086957     0.5000000000     0.0000000000 1
    0.2608695652     0.5000000000     0.0000000000 1
    0.2391304348     0.5000000000     0.0000000000 1
    0.2173913043     0.5000000000     0.0000000000 1
    0.1956521739     0.5000000000     0.0000000000 1
    0.1739130435     0.5000000000     0.0000000000 1
    0.1521739130     0.5000000000     0.0000000000 1
    0.1304347826     0.5000000000     0.0000000000 1
    0.1086956522     0.5000000000     0.0000000000 1
    0.0869565217     0.5000000000     0.0000000000 1
    0.0652173913     0.5000000000     0.0000000000 1
    0.0434782609     0.5000000000     0.0000000000 1
    0.0217391304     0.5000000000     0.0000000000 1
    0.0000000000     0.5000000000     0.0000000000 1
    0.0000000000     0.4666666667     0.0000000000 1
    0.0000000000     0.4333333333     0.0000000000 1
    0.0000000000     0.4000000000     0.0000000000 1
    0.0000000000     0.3666666667     0.0000000000 1
    0.0000000000     0.3333333333     0.0000000000 1
    0.0000000000     0.3000000000     0.0000000000 1
    0.0000000000     0.2666666667     0.0000000000 1
    0.0000000000     0.2333333333     0.0000000000 1
    0.0000000000     0.2000000000     0.0000000000 1
    0.0000000000     0.1666666667     0.0000000000 1
    0.0000000000     0.1333333333     0.0000000000 1
    0.0000000000     0.1000000000     0.0000000000 1
    0.0000000000     0.0666666667     0.0000000000 1
    0.0000000000     0.0333333333     0.0000000000 1
    0.0000000000     0.0000000000     0.0000000000 1
    0.0000000000     0.0000000000     0.0217391304 1
    0.0000000000     0.0000000000     0.0434782609 1
    0.0000000000     0.0000000000     0.0652173913 1
    0.0000000000     0.0000000000     0.0869565217 1
    0.0000000000     0.0000000000     0.1086956522 1
    0.0000000000     0.0000000000     0.1304347826 1
    0.0000000000     0.0000000000     0.1521739130 1
    0.0000000000     0.0000000000     0.1739130435 1
    0.0000000000     0.0000000000     0.1956521739 1
    0.0000000000     0.0000000000     0.2173913043 1
    0.0000000000     0.0000000000     0.2391304348 1
    0.0000000000     0.0000000000     0.2608695652 1
    0.0000000000     0.0000000000     0.2826086957 1
    0.0000000000     0.0000000000     0.3043478261 1
    0.0000000000     0.0000000000     0.3260869565 1
    0.0000000000     0.0000000000     0.3478260870 1
    0.0000000000     0.0000000000     0.3695652174 1
    0.0000000000     0.0000000000     0.3913043478 1
    0.0000000000     0.0000000000     0.4130434783 1
    0.0000000000     0.0000000000     0.4347826087 1
    0.0000000000     0.0000000000     0.4565217391 1
    0.0000000000     0.0000000000     0.4782608696 1
    0.0000000000     0.0000000000     0.5000000000 1
    0.0217391304     0.0000000000     0.5000000000 1
    0.0434782609     0.0000000000     0.5000000000 1
    0.0652173913     0.0000000000     0.5000000000 1
    0.0869565217     0.0000000000     0.5000000000 1
    0.1086956522     0.0000000000     0.5000000000 1
    0.1304347826     0.0000000000     0.5000000000 1
    0.1521739130     0.0000000000     0.5000000000 1
    0.1739130435     0.0000000000     0.5000000000 1
    0.1956521739     0.0000000000     0.5000000000 1
    0.2173913043     0.0000000000     0.5000000000 1
    0.2391304348     0.0000000000     0.5000000000 1
    0.2608695652     0.0000000000     0.5000000000 1
    0.2826086957     0.0000000000     0.5000000000 1
    0.3043478261     0.0000000000     0.5000000000 1
    0.3260869565     0.0000000000     0.5000000000 1
    0.3478260870     0.0000000000     0.5000000000 1
    0.3695652174     0.0000000000     0.5000000000 1
    0.3913043478     0.0000000000     0.5000000000 1
    0.4130434783     0.0000000000     0.5000000000 1
    0.4347826087     0.0000000000     0.5000000000 1
    0.4565217391     0.0000000000     0.5000000000 1
    0.4782608696     0.0000000000     0.5000000000 1
    0.5000000000     0.0000000000     0.5000000000 1
    0.5000000000     0.0333333333     0.5000000000 1
    0.5000000000     0.0666666667     0.5000000000 1
    0.5000000000     0.1000000000     0.5000000000 1
    0.5000000000     0.1333333333     0.5000000000 1
    0.5000000000     0.1666666667     0.5000000000 1
    0.5000000000     0.2000000000     0.5000000000 1
    0.5000000000     0.2333333333     0.5000000000 1
    0.5000000000     0.2666666667     0.5000000000 1
    0.5000000000     0.3000000000     0.5000000000 1
    0.5000000000     0.3333333333     0.5000000000 1
    0.5000000000     0.3666666667     0.5000000000 1
    0.5000000000     0.4000000000     0.5000000000 1
    0.5000000000     0.4333333333     0.5000000000 1
    0.5000000000     0.4666666667     0.5000000000 1
    0.5000000000     0.5000000000     0.5000000000 1
    0.4782608696     0.5000000000     0.5000000000 1
    0.4565217391     0.5000000000     0.5000000000 1
    0.4347826087     0.5000000000     0.5000000000 1
    0.4130434783     0.5000000000     0.5000000000 1
    0.3913043478     0.5000000000     0.5000000000 1
    0.3695652174     0.5000000000     0.5000000000 1
    0.3478260870     0.5000000000     0.5000000000 1
    0.3260869565     0.5000000000     0.5000000000 1
    0.3043478261     0.5000000000     0.5000000000 1
    0.2826086957     0.5000000000     0.5000000000 1
    0.2608695652     0.5000000000     0.5000000000 1
    0.2391304348     0.5000000000     0.5000000000 1
    0.2173913043     0.5000000000     0.5000000000 1
    0.1956521739     0.5000000000     0.5000000000 1
    0.1739130435     0.5000000000     0.5000000000 1
    0.1521739130     0.5000000000     0.5000000000 1
    0.1304347826     0.5000000000     0.5000000000 1
    0.1086956522     0.5000000000     0.5000000000 1
    0.0869565217     0.5000000000     0.5000000000 1
    0.0652173913     0.5000000000     0.5000000000 1
    0.0434782609     0.5000000000     0.5000000000 1
    0.0217391304     0.5000000000     0.5000000000 1
    0.0000000000     0.5000000000     0.5000000000 1
    0.0000000000     0.4666666667     0.5000000000 1
    0.0000000000     0.4333333333     0.5000000000 1
    0.0000000000     0.4000000000     0.5000000000 1
    0.0000000000     0.3666666667     0.5000000000 1
    0.0000000000     0.3333333333     0.5000000000 1
    0.0000000000     0.3000000000     0.5000000000 1
    0.0000000000     0.2666666667     0.5000000000 1
    0.0000000000     0.2333333333     0.5000000000 1
    0.0000000000     0.2000000000     0.5000000000 1
    0.0000000000     0.1666666667     0.5000000000 1
    0.0000000000     0.1333333333     0.5000000000 1
    0.0000000000     0.1000000000     0.5000000000 1
    0.0000000000     0.0666666667     0.5000000000 1
    0.0000000000     0.0333333333     0.5000000000 1
    0.0000000000     0.0000000000     0.5000000000 1
    0.5000000000     0.0000000000     0.0000000000 1
    0.5000000000     0.0000000000     0.0217391304 1
    0.5000000000     0.0000000000     0.0434782609 1
    0.5000000000     0.0000000000     0.0652173913 1
    0.5000000000     0.0000000000     0.0869565217 1
    0.5000000000     0.0000000000     0.1086956522 1
    0.5000000000     0.0000000000     0.1304347826 1
    0.5000000000     0.0000000000     0.1521739130 1
    0.5000000000     0.0000000000     0.1739130435 1
    0.5000000000     0.0000000000     0.1956521739 1
    0.5000000000     0.0000000000     0.2173913043 1
    0.5000000000     0.0000000000     0.2391304348 1
    0.5000000000     0.0000000000     0.2608695652 1
    0.5000000000     0.0000000000     0.2826086957 1
    0.5000000000     0.0000000000     0.3043478261 1
    0.5000000000     0.0000000000     0.3260869565 1
    0.5000000000     0.0000000000     0.3478260870 1
    0.5000000000     0.0000000000     0.3695652174 1
    0.5000000000     0.0000000000     0.3913043478 1
    0.5000000000     0.0000000000     0.4130434783 1
    0.5000000000     0.0000000000     0.4347826087 1
    0.5000000000     0.0000000000     0.4565217391 1
    0.5000000000     0.0000000000     0.4782608696 1
    0.5000000000     0.0000000000     0.5000000000 1
    0.0000000000     0.5000000000     0.0000000000 1
    0.0000000000     0.5000000000     0.0217391304 1
    0.0000000000     0.5000000000     0.0434782609 1
    0.0000000000     0.5000000000     0.0652173913 1
    0.0000000000     0.5000000000     0.0869565217 1
    0.0000000000     0.5000000000     0.1086956522 1
    0.0000000000     0.5000000000     0.1304347826 1
    0.0000000000     0.5000000000     0.1521739130 1
    0.0000000000     0.5000000000     0.1739130435 1
    0.0000000000     0.5000000000     0.1956521739 1
    0.0000000000     0.5000000000     0.2173913043 1
    0.0000000000     0.5000000000     0.2391304348 1
    0.0000000000     0.5000000000     0.2608695652 1
    0.0000000000     0.5000000000     0.2826086957 1
    0.0000000000     0.5000000000     0.3043478261 1
    0.0000000000     0.5000000000     0.3260869565 1
    0.0000000000     0.5000000000     0.3478260870 1
    0.0000000000     0.5000000000     0.3695652174 1
    0.0000000000     0.5000000000     0.3913043478 1
    0.0000000000     0.5000000000     0.4130434783 1
    0.0000000000     0.5000000000     0.4347826087 1
    0.0000000000     0.5000000000     0.4565217391 1
    0.0000000000     0.5000000000     0.4782608696 1
    0.0000000000     0.5000000000     0.5000000000 1
    0.5000000000     0.5000000000     0.0000000000 1
    0.5000000000     0.5000000000     0.0217391304 1
    0.5000000000     0.5000000000     0.0434782609 1
    0.5000000000     0.5000000000     0.0652173913 1
    0.5000000000     0.5000000000     0.0869565217 1
    0.5000000000     0.5000000000     0.1086956522 1
    0.5000000000     0.5000000000     0.1304347826 1
    0.5000000000     0.5000000000     0.1521739130 1
    0.5000000000     0.5000000000     0.1739130435 1
    0.5000000000     0.5000000000     0.1956521739 1
    0.5000000000     0.5000000000     0.2173913043 1
    0.5000000000     0.5000000000     0.2391304348 1
    0.5000000000     0.5000000000     0.2608695652 1
    0.5000000000     0.5000000000     0.2826086957 1
    0.5000000000     0.5000000000     0.3043478261 1
    0.5000000000     0.5000000000     0.3260869565 1
    0.5000000000     0.5000000000     0.3478260870 1
    0.5000000000     0.5000000000     0.3695652174 1
    0.5000000000     0.5000000000     0.3913043478 1
    0.5000000000     0.5000000000     0.4130434783 1
    0.5000000000     0.5000000000     0.4347826087 1
    0.5000000000     0.5000000000     0.4565217391 1
    0.5000000000     0.5000000000     0.4782608696 1
    0.5000000000     0.5000000000     0.5000000000 1
