 &BANDS
   filband         =  'x001.bands.dat',
   lsym            =  .true.,
   outdir          =  './temp'
   prefix          =  'x001'
 /


