&CONTROL
    calculation   = "scf"
    pseudo_dir    = "../pseudo"
    outdir        = './temp'
    prefix        = 'x001'
/
&SYSTEM
	A                         = 5.087463
	B                         = 7.695506
	C                         = 4.964460
    degauss                   = 1.00000e-02
    ecutwfc                   = 150
    ibrav                     = 8
    nat                       = 20
    nspin                     = 2
    ntyp                      = 3
    occupations               = "smearing"
    smearing                  = "gaussian"
    starting_magnetization(1) = 2.00000e-01
    starting_magnetization(2) = 0.00000e+00
    starting_magnetization(3) = 0.00000e+00
/
&ELECTRONS
    electron_maxstep = 200
    mixing_beta      = 4.00000e-01
/
K_POINTS {automatic}
 6  4  6  1 1 1
ATOMIC_SPECIES
Fe     55.84500  Fe.pbe-sp-hgh.UPF
In    114.81800  In.pbe-hgh.UPF
O      15.99940  O.pbe-hgh.UPF
ATOMIC_POSITIONS (crystal)
Fe       0.044606754   0.250000000   0.993422854
Fe       0.955394246   0.750000000   0.006578146
Fe       0.455394246   0.750000000   0.493422854
Fe       0.544606754   0.250000000   0.506578146
In       0.000000000   0.000000000   0.500000000
In       0.500000000   0.000000000   0.000000000
In       0.500000000   0.500000000   0.000000000
In       0.000000000   0.500000000   0.500000000
O        0.162366294   0.591487998   0.846671691
O        0.837634706   0.408511002   0.153329309
O        0.337634706   0.408511002   0.346671691
O        0.662366294   0.591487998   0.653329309
O        0.662366294   0.908511002   0.653329309
O        0.337634706   0.091487998   0.346671691
O        0.837634706   0.091487998   0.153329309
O        0.162366294   0.908511002   0.846671691
O        0.126135337   0.750000000   0.332345680
O        0.873865663   0.250000000   0.667655320
O        0.373865663   0.250000000   0.832345680
O        0.626135337   0.750000000   0.167655320
