&CONTROL
    calculation   = "nscf"
    pseudo_dir    = "../pseudo"
    outdir        = './temp'
    prefix        = 'x075'
/
&SYSTEM
    celldm(1)                 = 20.64128958
    degauss                   = 1.00000e-02
    ecutwfc                   = 150
    ibrav                     = 0
    nat                       = 40
    nspin                     = 2
    ntyp                      = 4
    occupations               = "smearing"
    smearing                  = "gaussian"
    starting_magnetization(1) = 2.00000e-01
    starting_magnetization(2) = 0.00000e+00
    starting_magnetization(3) = 0.00000e+00
    nbnd                      = 314
/
&ELECTRONS
    electron_maxstep = 200
    mixing_beta      = 4.00000e-01
/

K_POINTS {automatic}
 4  6  7  1 1 1
ATOMIC_SPECIES
Fe     55.84500  Fe.pbe-sp-hgh.UPF
In    114.81800  In.pbe-hgh.UPF
Sn    118.71000  Sn.pbe-hgh.UPF
O      15.99940  O.pbe-hgh.UPF
CELL_PARAMETERS (alat)
   0.990513108  -0.008245362  -0.016028796
  -0.002484557   0.735457666   0.002576358
  -0.009944094  -0.000577966   0.497751953

ATOMIC_POSITIONS (crystal)
Fe       0.015565178   0.291646042   0.989815120
Fe       0.518575408   0.203882776   0.995691572
Fe       0.242734806   0.746731652   0.483713886
Fe       0.739097511   0.751874381   0.483622986
Fe       0.481422592   0.796117224   0.004309428
Fe       0.984432822   0.708353958   0.010185880
Fe       0.260901489   0.248125619   0.516376014
Fe       0.757264194   0.253268348   0.516285114
In       0.000000000   0.000000000   0.500000000
In       0.499999000   0.000000000   0.500000000
In       0.231273749  -0.017111911   0.003416048
In       0.768725251   0.017111911  -0.003416048
In       0.000000000   0.500000000   0.500000000
In       0.499999000   0.500000000   0.500000000
Sn       0.264396866   0.477269164  -0.003022857
Sn       0.735602134   0.522730836   0.003022857
O        0.089936290   0.538508829   0.857850461
O        0.575526714   0.617006214   0.847089956
O        0.153663411   0.380387215   0.288771534
O        0.686349405   0.466320051   0.365649697
O        0.412986897   0.029878635   0.144965656
O        0.935344682   0.112898401   0.154148668
O        0.351325389   0.870006734   0.710474333
O        0.810683099   0.961350645   0.610457500
O        0.424471286   0.382993786   0.152911044
O        0.910061710   0.461491171   0.142150539
O        0.313648595   0.533679949   0.634352303
O        0.846335589   0.619612785   0.711230466
O        0.064653318   0.887101599   0.845852332
O        0.587011103   0.970121365   0.855035344
O        0.189315901   0.038649355   0.389544500
O        0.648672611   0.129993266   0.289527667
O        0.061761137   0.739108606   0.354278834
O        0.560945987   0.758969782   0.354686465
O        0.194762360   0.235342693   0.851607902
O        0.692183724   0.289185429   0.847712435
O        0.439052013   0.241030218   0.645314535
O        0.938236863   0.260891394   0.645722166
O        0.307815276   0.710814571   0.152288565
O        0.805236640   0.764657307   0.148393098
