&CONTROL
    calculation   = "bands"
    pseudo_dir    = "../pseudo"
    outdir        = './temp'
    prefix        = 'x075'
/
&SYSTEM
    celldm(1)                 = 20.64128958
    degauss                   = 1.00000e-02
    ecutwfc                   = 150
    ibrav                     = 0
    nat                       = 40
    nspin                     = 2
    ntyp                      = 4
    occupations               = "smearing"
    smearing                  = "gaussian"
    starting_magnetization(1) = 2.00000e-01
    starting_magnetization(2) = 0.00000e+00
    starting_magnetization(3) = 0.00000e+00
    nbnd                      = 314
/
&ELECTRONS
    electron_maxstep = 200
    mixing_beta      = 4.00000e-01
/

ATOMIC_SPECIES
Fe     55.84500  Fe.pbe-sp-hgh.UPF
In    114.81800  In.pbe-hgh.UPF
Sn    118.71000  Sn.pbe-hgh.UPF
O      15.99940  O.pbe-hgh.UPF
CELL_PARAMETERS (alat)
   0.990513108  -0.008245362  -0.016028796
  -0.002484557   0.735457666   0.002576358
  -0.009944094  -0.000577966   0.497751953

ATOMIC_POSITIONS (crystal)
Fe       0.015565178   0.291646042   0.989815120
Fe       0.518575408   0.203882776   0.995691572
Fe       0.242734806   0.746731652   0.483713886
Fe       0.739097511   0.751874381   0.483622986
Fe       0.481422592   0.796117224   0.004309428
Fe       0.984432822   0.708353958   0.010185880
Fe       0.260901489   0.248125619   0.516376014
Fe       0.757264194   0.253268348   0.516285114
In       0.000000000   0.000000000   0.500000000
In       0.499999000   0.000000000   0.500000000
In       0.231273749  -0.017111911   0.003416048
In       0.768725251   0.017111911  -0.003416048
In       0.000000000   0.500000000   0.500000000
In       0.499999000   0.500000000   0.500000000
Sn       0.264396866   0.477269164  -0.003022857
Sn       0.735602134   0.522730836   0.003022857
O        0.089936290   0.538508829   0.857850461
O        0.575526714   0.617006214   0.847089956
O        0.153663411   0.380387215   0.288771534
O        0.686349405   0.466320051   0.365649697
O        0.412986897   0.029878635   0.144965656
O        0.935344682   0.112898401   0.154148668
O        0.351325389   0.870006734   0.710474333
O        0.810683099   0.961350645   0.610457500
O        0.424471286   0.382993786   0.152911044
O        0.910061710   0.461491171   0.142150539
O        0.313648595   0.533679949   0.634352303
O        0.846335589   0.619612785   0.711230466
O        0.064653318   0.887101599   0.845852332
O        0.587011103   0.970121365   0.855035344
O        0.189315901   0.038649355   0.389544500
O        0.648672611   0.129993266   0.289527667
O        0.061761137   0.739108606   0.354278834
O        0.560945987   0.758969782   0.354686465
O        0.194762360   0.235342693   0.851607902
O        0.692183724   0.289185429   0.847712435
O        0.439052013   0.241030218   0.645314535
O        0.938236863   0.260891394   0.645722166
O        0.307815276   0.710814571   0.152288565
O        0.805236640   0.764657307   0.148393098

K_POINTS crystal
292
    0.0000000000     0.0000000000     0.0000000000 1
    0.0357142857     0.0000000000     0.0000000000 1
    0.0714285714     0.0000000000     0.0000000000 1
    0.1071428571     0.0000000000     0.0000000000 1
    0.1428571429     0.0000000000     0.0000000000 1
    0.1785714286     0.0000000000     0.0000000000 1
    0.2142857143     0.0000000000     0.0000000000 1
    0.2500000000     0.0000000000     0.0000000000 1
    0.2857142857     0.0000000000     0.0000000000 1
    0.3214285714     0.0000000000     0.0000000000 1
    0.3571428571     0.0000000000     0.0000000000 1
    0.3928571429     0.0000000000     0.0000000000 1
    0.4285714286     0.0000000000     0.0000000000 1
    0.4642857143     0.0000000000     0.0000000000 1
    0.5000000000     0.0000000000     0.0000000000 1
    0.0000000000     0.5000000000     0.0000000000 1
    0.0000000000     0.4772727273     0.0000000000 1
    0.0000000000     0.4545454545     0.0000000000 1
    0.0000000000     0.4318181818     0.0000000000 1
    0.0000000000     0.4090909091     0.0000000000 1
    0.0000000000     0.3863636364     0.0000000000 1
    0.0000000000     0.3636363636     0.0000000000 1
    0.0000000000     0.3409090909     0.0000000000 1
    0.0000000000     0.3181818182     0.0000000000 1
    0.0000000000     0.2954545455     0.0000000000 1
    0.0000000000     0.2727272727     0.0000000000 1
    0.0000000000     0.2500000000     0.0000000000 1
    0.0000000000     0.2272727273     0.0000000000 1
    0.0000000000     0.2045454545     0.0000000000 1
    0.0000000000     0.1818181818     0.0000000000 1
    0.0000000000     0.1590909091     0.0000000000 1
    0.0000000000     0.1363636364     0.0000000000 1
    0.0000000000     0.1136363636     0.0000000000 1
    0.0000000000     0.0909090909     0.0000000000 1
    0.0000000000     0.0681818182     0.0000000000 1
    0.0000000000     0.0454545455     0.0000000000 1
    0.0000000000     0.0227272727     0.0000000000 1
    0.0000000000     0.0000000000     0.0000000000 1
    0.0000000000     0.0000000000     0.0500000000 1
    0.0000000000     0.0000000000     0.1000000000 1
    0.0000000000     0.0000000000     0.1500000000 1
    0.0000000000     0.0000000000     0.2000000000 1
    0.0000000000     0.0000000000     0.2500000000 1
    0.0000000000     0.0000000000     0.3000000000 1
    0.0000000000     0.0000000000     0.3500000000 1
    0.0000000000     0.0000000000     0.4000000000 1
    0.0000000000     0.0000000000     0.4500000000 1
    0.0000000000     0.0000000000     0.5000000000 1
    0.5000000000     0.5000000000     0.5000000000 1
    0.4821428571     0.4821428571     0.4821428571 1
    0.4642857143     0.4642857143     0.4642857143 1
    0.4464285714     0.4464285714     0.4464285714 1
    0.4285714286     0.4285714286     0.4285714286 1
    0.4107142857     0.4107142857     0.4107142857 1
    0.3928571429     0.3928571429     0.3928571429 1
    0.3750000000     0.3750000000     0.3750000000 1
    0.3571428571     0.3571428571     0.3571428571 1
    0.3392857143     0.3392857143     0.3392857143 1
    0.3214285714     0.3214285714     0.3214285714 1
    0.3035714286     0.3035714286     0.3035714286 1
    0.2857142857     0.2857142857     0.2857142857 1
    0.2678571429     0.2678571429     0.2678571429 1
    0.2500000000     0.2500000000     0.2500000000 1
    0.2321428571     0.2321428571     0.2321428571 1
    0.2142857143     0.2142857143     0.2142857143 1
    0.1964285714     0.1964285714     0.1964285714 1
    0.1785714286     0.1785714286     0.1785714286 1
    0.1607142857     0.1607142857     0.1607142857 1
    0.1428571429     0.1428571429     0.1428571429 1
    0.1250000000     0.1250000000     0.1250000000 1
    0.1071428571     0.1071428571     0.1071428571 1
    0.0892857143     0.0892857143     0.0892857143 1
    0.0714285714     0.0714285714     0.0714285714 1
    0.0535714286     0.0535714286     0.0535714286 1
    0.0357142857     0.0357142857     0.0357142857 1
    0.0178571429     0.0178571429     0.0178571429 1
    0.0000000000     0.0000000000     0.0000000000 1
    0.0000000000     0.0208333333     0.0208333333 1
    0.0000000000     0.0416666667     0.0416666667 1
    0.0000000000     0.0625000000     0.0625000000 1
    0.0000000000     0.0833333333     0.0833333333 1
    0.0000000000     0.1041666667     0.1041666667 1
    0.0000000000     0.1250000000     0.1250000000 1
    0.0000000000     0.1458333333     0.1458333333 1
    0.0000000000     0.1666666667     0.1666666667 1
    0.0000000000     0.1875000000     0.1875000000 1
    0.0000000000     0.2083333333     0.2083333333 1
    0.0000000000     0.2291666667     0.2291666667 1
    0.0000000000     0.2500000000     0.2500000000 1
    0.0000000000     0.2708333333     0.2708333333 1
    0.0000000000     0.2916666667     0.2916666667 1
    0.0000000000     0.3125000000     0.3125000000 1
    0.0000000000     0.3333333333     0.3333333333 1
    0.0000000000     0.3541666667     0.3541666667 1
    0.0000000000     0.3750000000     0.3750000000 1
    0.0000000000     0.3958333333     0.3958333333 1
    0.0000000000     0.4166666667     0.4166666667 1
    0.0000000000     0.4375000000     0.4375000000 1
    0.0000000000     0.4583333333     0.4583333333 1
    0.0000000000     0.4791666667     0.4791666667 1
    0.0000000000     0.5000000000     0.5000000000 1
    0.5000000000     0.0000000000     0.5000000000 1
    0.4722222222     0.0000000000     0.4722222222 1
    0.4444444444     0.0000000000     0.4444444444 1
    0.4166666667     0.0000000000     0.4166666667 1
    0.3888888889     0.0000000000     0.3888888889 1
    0.3611111111     0.0000000000     0.3611111111 1
    0.3333333333     0.0000000000     0.3333333333 1
    0.3055555556     0.0000000000     0.3055555556 1
    0.2777777778     0.0000000000     0.2777777778 1
    0.2500000000     0.0000000000     0.2500000000 1
    0.2222222222     0.0000000000     0.2222222222 1
    0.1944444444     0.0000000000     0.1944444444 1
    0.1666666667     0.0000000000     0.1666666667 1
    0.1388888889     0.0000000000     0.1388888889 1
    0.1111111111     0.0000000000     0.1111111111 1
    0.0833333333     0.0000000000     0.0833333333 1
    0.0555555556     0.0000000000     0.0555555556 1
    0.0277777778     0.0000000000     0.0277777778 1
    0.0000000000     0.0000000000     0.0000000000 1
    0.0192307692     0.0192307692     0.0000000000 1
    0.0384615385     0.0384615385     0.0000000000 1
    0.0576923077     0.0576923077     0.0000000000 1
    0.0769230769     0.0769230769     0.0000000000 1
    0.0961538462     0.0961538462     0.0000000000 1
    0.1153846154     0.1153846154     0.0000000000 1
    0.1346153846     0.1346153846     0.0000000000 1
    0.1538461538     0.1538461538     0.0000000000 1
    0.1730769231     0.1730769231     0.0000000000 1
    0.1923076923     0.1923076923     0.0000000000 1
    0.2115384615     0.2115384615     0.0000000000 1
    0.2307692308     0.2307692308     0.0000000000 1
    0.2500000000     0.2500000000     0.0000000000 1
    0.2692307692     0.2692307692     0.0000000000 1
    0.2884615385     0.2884615385     0.0000000000 1
    0.3076923077     0.3076923077     0.0000000000 1
    0.3269230769     0.3269230769     0.0000000000 1
    0.3461538462     0.3461538462     0.0000000000 1
    0.3653846154     0.3653846154     0.0000000000 1
    0.3846153846     0.3846153846     0.0000000000 1
    0.4038461538     0.4038461538     0.0000000000 1
    0.4230769231     0.4230769231     0.0000000000 1
    0.4423076923     0.4423076923     0.0000000000 1
    0.4615384615     0.4615384615     0.0000000000 1
    0.4807692308     0.4807692308     0.0000000000 1
    0.5000000000     0.5000000000     0.0000000000 1
    0.0000000000     0.0000000000     0.0000000000 1
   -0.0357142857     0.0000000000     0.0000000000 1
   -0.0714285714     0.0000000000     0.0000000000 1
   -0.1071428571     0.0000000000     0.0000000000 1
   -0.1428571429     0.0000000000     0.0000000000 1
   -0.1785714286     0.0000000000     0.0000000000 1
   -0.2142857143     0.0000000000     0.0000000000 1
   -0.2500000000     0.0000000000     0.0000000000 1
   -0.2857142857     0.0000000000     0.0000000000 1
   -0.3214285714     0.0000000000     0.0000000000 1
   -0.3571428571     0.0000000000     0.0000000000 1
   -0.3928571429     0.0000000000     0.0000000000 1
   -0.4285714286     0.0000000000     0.0000000000 1
   -0.4642857143     0.0000000000     0.0000000000 1
   -0.5000000000     0.0000000000     0.0000000000 1
    0.0000000000    -0.5000000000     0.0000000000 1
    0.0000000000    -0.4772727273     0.0000000000 1
    0.0000000000    -0.4545454545     0.0000000000 1
    0.0000000000    -0.4318181818     0.0000000000 1
    0.0000000000    -0.4090909091     0.0000000000 1
    0.0000000000    -0.3863636364     0.0000000000 1
    0.0000000000    -0.3636363636     0.0000000000 1
    0.0000000000    -0.3409090909     0.0000000000 1
    0.0000000000    -0.3181818182     0.0000000000 1
    0.0000000000    -0.2954545455     0.0000000000 1
    0.0000000000    -0.2727272727     0.0000000000 1
    0.0000000000    -0.2500000000     0.0000000000 1
    0.0000000000    -0.2272727273     0.0000000000 1
    0.0000000000    -0.2045454545     0.0000000000 1
    0.0000000000    -0.1818181818     0.0000000000 1
    0.0000000000    -0.1590909091     0.0000000000 1
    0.0000000000    -0.1363636364     0.0000000000 1
    0.0000000000    -0.1136363636     0.0000000000 1
    0.0000000000    -0.0909090909     0.0000000000 1
    0.0000000000    -0.0681818182     0.0000000000 1
    0.0000000000    -0.0454545455     0.0000000000 1
    0.0000000000    -0.0227272727     0.0000000000 1
    0.0000000000     0.0000000000     0.0000000000 1
    0.0000000000     0.0000000000    -0.0500000000 1
    0.0000000000     0.0000000000    -0.1000000000 1
    0.0000000000     0.0000000000    -0.1500000000 1
    0.0000000000     0.0000000000    -0.2000000000 1
    0.0000000000     0.0000000000    -0.2500000000 1
    0.0000000000     0.0000000000    -0.3000000000 1
    0.0000000000     0.0000000000    -0.3500000000 1
    0.0000000000     0.0000000000    -0.4000000000 1
    0.0000000000     0.0000000000    -0.4500000000 1
    0.0000000000     0.0000000000    -0.5000000000 1
   -0.5000000000    -0.5000000000    -0.5000000000 1
   -0.4821428571    -0.4821428571    -0.4821428571 1
   -0.4642857143    -0.4642857143    -0.4642857143 1
   -0.4464285714    -0.4464285714    -0.4464285714 1
   -0.4285714286    -0.4285714286    -0.4285714286 1
   -0.4107142857    -0.4107142857    -0.4107142857 1
   -0.3928571429    -0.3928571429    -0.3928571429 1
   -0.3750000000    -0.3750000000    -0.3750000000 1
   -0.3571428571    -0.3571428571    -0.3571428571 1
   -0.3392857143    -0.3392857143    -0.3392857143 1
   -0.3214285714    -0.3214285714    -0.3214285714 1
   -0.3035714286    -0.3035714286    -0.3035714286 1
   -0.2857142857    -0.2857142857    -0.2857142857 1
   -0.2678571429    -0.2678571429    -0.2678571429 1
   -0.2500000000    -0.2500000000    -0.2500000000 1
   -0.2321428571    -0.2321428571    -0.2321428571 1
   -0.2142857143    -0.2142857143    -0.2142857143 1
   -0.1964285714    -0.1964285714    -0.1964285714 1
   -0.1785714286    -0.1785714286    -0.1785714286 1
   -0.1607142857    -0.1607142857    -0.1607142857 1
   -0.1428571429    -0.1428571429    -0.1428571429 1
   -0.1250000000    -0.1250000000    -0.1250000000 1
   -0.1071428571    -0.1071428571    -0.1071428571 1
   -0.0892857143    -0.0892857143    -0.0892857143 1
   -0.0714285714    -0.0714285714    -0.0714285714 1
   -0.0535714286    -0.0535714286    -0.0535714286 1
   -0.0357142857    -0.0357142857    -0.0357142857 1
   -0.0178571429    -0.0178571429    -0.0178571429 1
    0.0000000000     0.0000000000     0.0000000000 1
    0.0000000000    -0.0208333333    -0.0208333333 1
    0.0000000000    -0.0416666667    -0.0416666667 1
    0.0000000000    -0.0625000000    -0.0625000000 1
    0.0000000000    -0.0833333333    -0.0833333333 1
    0.0000000000    -0.1041666667    -0.1041666667 1
    0.0000000000    -0.1250000000    -0.1250000000 1
    0.0000000000    -0.1458333333    -0.1458333333 1
    0.0000000000    -0.1666666667    -0.1666666667 1
    0.0000000000    -0.1875000000    -0.1875000000 1
    0.0000000000    -0.2083333333    -0.2083333333 1
    0.0000000000    -0.2291666667    -0.2291666667 1
    0.0000000000    -0.2500000000    -0.2500000000 1
    0.0000000000    -0.2708333333    -0.2708333333 1
    0.0000000000    -0.2916666667    -0.2916666667 1
    0.0000000000    -0.3125000000    -0.3125000000 1
    0.0000000000    -0.3333333333    -0.3333333333 1
    0.0000000000    -0.3541666667    -0.3541666667 1
    0.0000000000    -0.3750000000    -0.3750000000 1
    0.0000000000    -0.3958333333    -0.3958333333 1
    0.0000000000    -0.4166666667    -0.4166666667 1
    0.0000000000    -0.4375000000    -0.4375000000 1
    0.0000000000    -0.4583333333    -0.4583333333 1
    0.0000000000    -0.4791666667    -0.4791666667 1
    0.0000000000    -0.5000000000    -0.5000000000 1
   -0.5000000000     0.0000000000    -0.5000000000 1
   -0.4722222222     0.0000000000    -0.4722222222 1
   -0.4444444444     0.0000000000    -0.4444444444 1
   -0.4166666667     0.0000000000    -0.4166666667 1
   -0.3888888889     0.0000000000    -0.3888888889 1
   -0.3611111111     0.0000000000    -0.3611111111 1
   -0.3333333333     0.0000000000    -0.3333333333 1
   -0.3055555556     0.0000000000    -0.3055555556 1
   -0.2777777778     0.0000000000    -0.2777777778 1
   -0.2500000000     0.0000000000    -0.2500000000 1
   -0.2222222222     0.0000000000    -0.2222222222 1
   -0.1944444444     0.0000000000    -0.1944444444 1
   -0.1666666667     0.0000000000    -0.1666666667 1
   -0.1388888889     0.0000000000    -0.1388888889 1
   -0.1111111111     0.0000000000    -0.1111111111 1
   -0.0833333333     0.0000000000    -0.0833333333 1
   -0.0555555556     0.0000000000    -0.0555555556 1
   -0.0277777778     0.0000000000    -0.0277777778 1
    0.0000000000     0.0000000000     0.0000000000 1
   -0.0192307692    -0.0192307692     0.0000000000 1
   -0.0384615385    -0.0384615385     0.0000000000 1
   -0.0576923077    -0.0576923077     0.0000000000 1
   -0.0769230769    -0.0769230769     0.0000000000 1
   -0.0961538462    -0.0961538462     0.0000000000 1
   -0.1153846154    -0.1153846154     0.0000000000 1
   -0.1346153846    -0.1346153846     0.0000000000 1
   -0.1538461538    -0.1538461538     0.0000000000 1
   -0.1730769231    -0.1730769231     0.0000000000 1
   -0.1923076923    -0.1923076923     0.0000000000 1
   -0.2115384615    -0.2115384615     0.0000000000 1
   -0.2307692308    -0.2307692308     0.0000000000 1
   -0.2500000000    -0.2500000000     0.0000000000 1
   -0.2692307692    -0.2692307692     0.0000000000 1
   -0.2884615385    -0.2884615385     0.0000000000 1
   -0.3076923077    -0.3076923077     0.0000000000 1
   -0.3269230769    -0.3269230769     0.0000000000 1
   -0.3461538462    -0.3461538462     0.0000000000 1
   -0.3653846154    -0.3653846154     0.0000000000 1
   -0.3846153846    -0.3846153846     0.0000000000 1
   -0.4038461538    -0.4038461538     0.0000000000 1
   -0.4230769231    -0.4230769231     0.0000000000 1
   -0.4423076923    -0.4423076923     0.0000000000 1
   -0.4615384615    -0.4615384615     0.0000000000 1
   -0.4807692308    -0.4807692308     0.0000000000 1
   -0.5000000000    -0.5000000000     0.0000000000 1
