 &BANDS
   filband         =  'x050.bands.dat',
   lsym            =  .true.,
   outdir          =  './temp'
   prefix          =  'x050'
 /


