&CONTROL
    calculation   = "scf"
    pseudo_dir    = "../pseudo"
    outdir        = './temp'
    prefix        = 'x050'
/
&SYSTEM
	celldm(1)                 = 20.64128958
    degauss                   = 1.00000e-02
    ecutwfc                   = 150
    ibrav                     = 0
    nat                       = 40
    nspin                     = 2
    ntyp                      = 3
    occupations               = "smearing"
    smearing                  = "gaussian"
    starting_magnetization(1) = 2.00000e-01
    starting_magnetization(2) = 0.00000e+00
    starting_magnetization(3) = 0.00000e+00
/
&ELECTRONS
    electron_maxstep = 200
    mixing_beta      = 4.00000e-01
/

K_POINTS {automatic}
 4  6  7  1 1 1
ATOMIC_SPECIES
Fe     55.84500  Fe.pbe-sp-hgh.UPF
In    114.81800  In.pbe-hgh.UPF
Sn    118.71000  Sn.pbe-hgh.UPF
O      15.99940  O.pbe-hgh.UPF
CELL_PARAMETERS (alat)
   0.994174850   0.000000000  -0.000602132
   0.000000000   0.735356705   0.000000000
  -0.000294234   0.000000000   0.491413715

ATOMIC_POSITIONS (crystal)
Fe       0.012469881   0.283429931   0.995528044
Fe       0.512468881   0.216570069   0.995528044
Fe       0.238253719   0.718937764   0.493631117
Fe       0.738252719   0.781062236   0.493631117
Fe       0.482235879   0.768830322   0.001677135
Fe       0.982234879   0.731169678   0.001677135
Fe       0.267548471   0.267417662   0.501187134
Fe       0.767547471   0.232582338   0.501187134
In       0.010005905   0.010873723   0.498676764
In       0.239395321  -0.011005157  -0.001669057
In       0.510004905   0.489126277   0.498676764
In       0.739394321   0.511005157  -0.001669057
Sn       0.494232251  -0.017235782   0.496986241
Sn       0.756540686   0.018231274  -0.004056952
Sn      -0.005766749   0.517235782   0.496986241
Sn       0.256541686   0.481768726  -0.004056952
O        0.103266220   0.587142193   0.807419448
O        0.559964656   0.569267876   0.873574229
O        0.145730393   0.409474083   0.304114683
O        0.689887374   0.433063926   0.374359226
O        0.424389255   0.015939084   0.137889551
O        0.900254346   0.135380975   0.188418556
O        0.350485226   0.865174252   0.689426047
O        0.824568331   0.983503537   0.635670612
O        0.400255346   0.364619025   0.188418556
O        0.924388255   0.484060916   0.137889551
O        0.324568331   0.516496463   0.635670612
O        0.850485226   0.634825748   0.689426047
O        0.059965656   0.930732124   0.873574229
O        0.603265220   0.912857807   0.807419448
O        0.189888374   0.066936074   0.374359226
O        0.645729393   0.090525917   0.304114683
O        0.058944772   0.751007339   0.358576853
O        0.558943772   0.748992661   0.358576853
O        0.191627107   0.247854482   0.857281888
O        0.691626107   0.252145518   0.857281888
O        0.444624475   0.212629606   0.646009990
O        0.944623475   0.287370394   0.646009990
O        0.305564732   0.711619926   0.145306493
O        0.805563732   0.788380074   0.145306493
