&CONTROL
    calculation   = "bands"
    pseudo_dir    = "../pseudo"
    outdir        = './temp'
    prefix        = 'x050'
/
&SYSTEM
	celldm(1)                 = 20.64128958
    degauss                   = 1.00000e-02
    ecutwfc                   = 150
    ibrav                     = 0
    nat                       = 40
    nspin                     = 2
    ntyp                      = 4
    occupations               = "smearing"
    smearing                  = "gaussian"
    starting_magnetization(1) = 2.00000e-01
    starting_magnetization(2) = 0.00000e+00
    starting_magnetization(3) = 0.00000e+00
    nbnd                      = 318
/
&ELECTRONS
    electron_maxstep = 200
    mixing_beta      = 4.00000e-01
/

ATOMIC_SPECIES
Fe     55.84500  Fe.pbe-sp-hgh.UPF
In    114.81800  In.pbe-hgh.UPF
Sn    118.71000  Sn.pbe-hgh.UPF
O      15.99940  O.pbe-hgh.UPF
CELL_PARAMETERS (alat)
   0.994174850   0.000000000  -0.000602132
   0.000000000   0.735356705   0.000000000
  -0.000294234   0.000000000   0.491413715

ATOMIC_POSITIONS (crystal)
Fe       0.012469881   0.283429931   0.995528044
Fe       0.512468881   0.216570069   0.995528044
Fe       0.238253719   0.718937764   0.493631117
Fe       0.738252719   0.781062236   0.493631117
Fe       0.482235879   0.768830322   0.001677135
Fe       0.982234879   0.731169678   0.001677135
Fe       0.267548471   0.267417662   0.501187134
Fe       0.767547471   0.232582338   0.501187134
In       0.010005905   0.010873723   0.498676764
In       0.239395321  -0.011005157  -0.001669057
In       0.510004905   0.489126277   0.498676764
In       0.739394321   0.511005157  -0.001669057
Sn       0.494232251  -0.017235782   0.496986241
Sn       0.756540686   0.018231274  -0.004056952
Sn      -0.005766749   0.517235782   0.496986241
Sn       0.256541686   0.481768726  -0.004056952
O        0.103266220   0.587142193   0.807419448
O        0.559964656   0.569267876   0.873574229
O        0.145730393   0.409474083   0.304114683
O        0.689887374   0.433063926   0.374359226
O        0.424389255   0.015939084   0.137889551
O        0.900254346   0.135380975   0.188418556
O        0.350485226   0.865174252   0.689426047
O        0.824568331   0.983503537   0.635670612
O        0.400255346   0.364619025   0.188418556
O        0.924388255   0.484060916   0.137889551
O        0.324568331   0.516496463   0.635670612
O        0.850485226   0.634825748   0.689426047
O        0.059965656   0.930732124   0.873574229
O        0.603265220   0.912857807   0.807419448
O        0.189888374   0.066936074   0.374359226
O        0.645729393   0.090525917   0.304114683
O        0.058944772   0.751007339   0.358576853
O        0.558943772   0.748992661   0.358576853
O        0.191627107   0.247854482   0.857281888
O        0.691626107   0.252145518   0.857281888
O        0.444624475   0.212629606   0.646009990
O        0.944623475   0.287370394   0.646009990
O        0.305564732   0.711619926   0.145306493
O        0.805563732   0.788380074   0.145306493

K_POINTS crystal
298
    0.0000000000     0.0000000000     0.0000000000 1
    0.0500000000     0.0000000000     0.0000000000 1
    0.1000000000     0.0000000000     0.0000000000 1
    0.1500000000     0.0000000000     0.0000000000 1
    0.2000000000     0.0000000000     0.0000000000 1
    0.2500000000     0.0000000000     0.0000000000 1
    0.3000000000     0.0000000000     0.0000000000 1
    0.3500000000     0.0000000000     0.0000000000 1
    0.4000000000     0.0000000000     0.0000000000 1
    0.4500000000     0.0000000000     0.0000000000 1
    0.5000000000     0.0000000000     0.0000000000 1
    0.0000000000     0.5000000000     0.0000000000 1
    0.0000000000     0.4642857143     0.0000000000 1
    0.0000000000     0.4285714286     0.0000000000 1
    0.0000000000     0.3928571429     0.0000000000 1
    0.0000000000     0.3571428571     0.0000000000 1
    0.0000000000     0.3214285714     0.0000000000 1
    0.0000000000     0.2857142857     0.0000000000 1
    0.0000000000     0.2500000000     0.0000000000 1
    0.0000000000     0.2142857143     0.0000000000 1
    0.0000000000     0.1785714286     0.0000000000 1
    0.0000000000     0.1428571429     0.0000000000 1
    0.0000000000     0.1071428571     0.0000000000 1
    0.0000000000     0.0714285714     0.0000000000 1
    0.0000000000     0.0357142857     0.0000000000 1
    0.0000000000     0.0000000000     0.0000000000 1
    0.0000000000     0.0000000000     0.0227272727 1
    0.0000000000     0.0000000000     0.0454545455 1
    0.0000000000     0.0000000000     0.0681818182 1
    0.0000000000     0.0000000000     0.0909090909 1
    0.0000000000     0.0000000000     0.1136363636 1
    0.0000000000     0.0000000000     0.1363636364 1
    0.0000000000     0.0000000000     0.1590909091 1
    0.0000000000     0.0000000000     0.1818181818 1
    0.0000000000     0.0000000000     0.2045454545 1
    0.0000000000     0.0000000000     0.2272727273 1
    0.0000000000     0.0000000000     0.2500000000 1
    0.0000000000     0.0000000000     0.2727272727 1
    0.0000000000     0.0000000000     0.2954545455 1
    0.0000000000     0.0000000000     0.3181818182 1
    0.0000000000     0.0000000000     0.3409090909 1
    0.0000000000     0.0000000000     0.3636363636 1
    0.0000000000     0.0000000000     0.3863636364 1
    0.0000000000     0.0000000000     0.4090909091 1
    0.0000000000     0.0000000000     0.4318181818 1
    0.0000000000     0.0000000000     0.4545454545 1
    0.0000000000     0.0000000000     0.4772727273 1
    0.0000000000     0.0000000000     0.5000000000 1
   -0.5000000000    -0.5000000000     0.5000000000 1
   -0.4827586207    -0.4827586207     0.4827586207 1
   -0.4655172414    -0.4655172414     0.4655172414 1
   -0.4482758621    -0.4482758621     0.4482758621 1
   -0.4310344828    -0.4310344828     0.4310344828 1
   -0.4137931034    -0.4137931034     0.4137931034 1
   -0.3965517241    -0.3965517241     0.3965517241 1
   -0.3793103448    -0.3793103448     0.3793103448 1
   -0.3620689655    -0.3620689655     0.3620689655 1
   -0.3448275862    -0.3448275862     0.3448275862 1
   -0.3275862069    -0.3275862069     0.3275862069 1
   -0.3103448276    -0.3103448276     0.3103448276 1
   -0.2931034483    -0.2931034483     0.2931034483 1
   -0.2758620690    -0.2758620690     0.2758620690 1
   -0.2586206897    -0.2586206897     0.2586206897 1
   -0.2413793103    -0.2413793103     0.2413793103 1
   -0.2241379310    -0.2241379310     0.2241379310 1
   -0.2068965517    -0.2068965517     0.2068965517 1
   -0.1896551724    -0.1896551724     0.1896551724 1
   -0.1724137931    -0.1724137931     0.1724137931 1
   -0.1551724138    -0.1551724138     0.1551724138 1
   -0.1379310345    -0.1379310345     0.1379310345 1
   -0.1206896552    -0.1206896552     0.1206896552 1
   -0.1034482759    -0.1034482759     0.1034482759 1
   -0.0862068966    -0.0862068966     0.0862068966 1
   -0.0689655172    -0.0689655172     0.0689655172 1
   -0.0517241379    -0.0517241379     0.0517241379 1
   -0.0344827586    -0.0344827586     0.0344827586 1
   -0.0172413793    -0.0172413793     0.0172413793 1
    0.0000000000     0.0000000000     0.0000000000 1
    0.0000000000    -0.0185185185     0.0185185185 1
    0.0000000000    -0.0370370370     0.0370370370 1
    0.0000000000    -0.0555555556     0.0555555556 1
    0.0000000000    -0.0740740741     0.0740740741 1
    0.0000000000    -0.0925925926     0.0925925926 1
    0.0000000000    -0.1111111111     0.1111111111 1
    0.0000000000    -0.1296296296     0.1296296296 1
    0.0000000000    -0.1481481481     0.1481481481 1
    0.0000000000    -0.1666666667     0.1666666667 1
    0.0000000000    -0.1851851852     0.1851851852 1
    0.0000000000    -0.2037037037     0.2037037037 1
    0.0000000000    -0.2222222222     0.2222222222 1
    0.0000000000    -0.2407407407     0.2407407407 1
    0.0000000000    -0.2592592593     0.2592592593 1
    0.0000000000    -0.2777777778     0.2777777778 1
    0.0000000000    -0.2962962963     0.2962962963 1
    0.0000000000    -0.3148148148     0.3148148148 1
    0.0000000000    -0.3333333333     0.3333333333 1
    0.0000000000    -0.3518518519     0.3518518519 1
    0.0000000000    -0.3703703704     0.3703703704 1
    0.0000000000    -0.3888888889     0.3888888889 1
    0.0000000000    -0.4074074074     0.4074074074 1
    0.0000000000    -0.4259259259     0.4259259259 1
    0.0000000000    -0.4444444444     0.4444444444 1
    0.0000000000    -0.4629629630     0.4629629630 1
    0.0000000000    -0.4814814815     0.4814814815 1
    0.0000000000    -0.5000000000     0.5000000000 1
   -0.5000000000     0.0000000000     0.5000000000 1
   -0.4800000000     0.0000000000     0.4800000000 1
   -0.4600000000     0.0000000000     0.4600000000 1
   -0.4400000000     0.0000000000     0.4400000000 1
   -0.4200000000     0.0000000000     0.4200000000 1
   -0.4000000000     0.0000000000     0.4000000000 1
   -0.3800000000     0.0000000000     0.3800000000 1
   -0.3600000000     0.0000000000     0.3600000000 1
   -0.3400000000     0.0000000000     0.3400000000 1
   -0.3200000000     0.0000000000     0.3200000000 1
   -0.3000000000     0.0000000000     0.3000000000 1
   -0.2800000000     0.0000000000     0.2800000000 1
   -0.2600000000     0.0000000000     0.2600000000 1
   -0.2400000000     0.0000000000     0.2400000000 1
   -0.2200000000     0.0000000000     0.2200000000 1
   -0.2000000000     0.0000000000     0.2000000000 1
   -0.1800000000     0.0000000000     0.1800000000 1
   -0.1600000000     0.0000000000     0.1600000000 1
   -0.1400000000     0.0000000000     0.1400000000 1
   -0.1200000000     0.0000000000     0.1200000000 1
   -0.1000000000     0.0000000000     0.1000000000 1
   -0.0800000000     0.0000000000     0.0800000000 1
   -0.0600000000     0.0000000000     0.0600000000 1
   -0.0400000000     0.0000000000     0.0400000000 1
   -0.0200000000     0.0000000000     0.0200000000 1
    0.0000000000     0.0000000000     0.0000000000 1
    0.0277777778    -0.0277777778     0.0000000000 1
    0.0555555556    -0.0555555556     0.0000000000 1
    0.0833333333    -0.0833333333     0.0000000000 1
    0.1111111111    -0.1111111111     0.0000000000 1
    0.1388888889    -0.1388888889     0.0000000000 1
    0.1666666667    -0.1666666667     0.0000000000 1
    0.1944444444    -0.1944444444     0.0000000000 1
    0.2222222222    -0.2222222222     0.0000000000 1
    0.2500000000    -0.2500000000     0.0000000000 1
    0.2777777778    -0.2777777778     0.0000000000 1
    0.3055555556    -0.3055555556     0.0000000000 1
    0.3333333333    -0.3333333333     0.0000000000 1
    0.3611111111    -0.3611111111     0.0000000000 1
    0.3888888889    -0.3888888889     0.0000000000 1
    0.4166666667    -0.4166666667     0.0000000000 1
    0.4444444444    -0.4444444444     0.0000000000 1
    0.4722222222    -0.4722222222     0.0000000000 1
    0.5000000000    -0.5000000000     0.0000000000 1
    0.0000000000     0.0000000000     0.0000000000 1
   -0.0500000000     0.0000000000     0.0000000000 1
   -0.1000000000     0.0000000000     0.0000000000 1
   -0.1500000000     0.0000000000     0.0000000000 1
   -0.2000000000     0.0000000000     0.0000000000 1
   -0.2500000000     0.0000000000     0.0000000000 1
   -0.3000000000     0.0000000000     0.0000000000 1
   -0.3500000000     0.0000000000     0.0000000000 1
   -0.4000000000     0.0000000000     0.0000000000 1
   -0.4500000000     0.0000000000     0.0000000000 1
   -0.5000000000     0.0000000000     0.0000000000 1
    0.0000000000    -0.5000000000     0.0000000000 1
    0.0000000000    -0.4642857143     0.0000000000 1
    0.0000000000    -0.4285714286     0.0000000000 1
    0.0000000000    -0.3928571429     0.0000000000 1
    0.0000000000    -0.3571428571     0.0000000000 1
    0.0000000000    -0.3214285714     0.0000000000 1
    0.0000000000    -0.2857142857     0.0000000000 1
    0.0000000000    -0.2500000000     0.0000000000 1
    0.0000000000    -0.2142857143     0.0000000000 1
    0.0000000000    -0.1785714286     0.0000000000 1
    0.0000000000    -0.1428571429     0.0000000000 1
    0.0000000000    -0.1071428571     0.0000000000 1
    0.0000000000    -0.0714285714     0.0000000000 1
    0.0000000000    -0.0357142857     0.0000000000 1
    0.0000000000     0.0000000000     0.0000000000 1
    0.0000000000     0.0000000000    -0.0227272727 1
    0.0000000000     0.0000000000    -0.0454545455 1
    0.0000000000     0.0000000000    -0.0681818182 1
    0.0000000000     0.0000000000    -0.0909090909 1
    0.0000000000     0.0000000000    -0.1136363636 1
    0.0000000000     0.0000000000    -0.1363636364 1
    0.0000000000     0.0000000000    -0.1590909091 1
    0.0000000000     0.0000000000    -0.1818181818 1
    0.0000000000     0.0000000000    -0.2045454545 1
    0.0000000000     0.0000000000    -0.2272727273 1
    0.0000000000     0.0000000000    -0.2500000000 1
    0.0000000000     0.0000000000    -0.2727272727 1
    0.0000000000     0.0000000000    -0.2954545455 1
    0.0000000000     0.0000000000    -0.3181818182 1
    0.0000000000     0.0000000000    -0.3409090909 1
    0.0000000000     0.0000000000    -0.3636363636 1
    0.0000000000     0.0000000000    -0.3863636364 1
    0.0000000000     0.0000000000    -0.4090909091 1
    0.0000000000     0.0000000000    -0.4318181818 1
    0.0000000000     0.0000000000    -0.4545454545 1
    0.0000000000     0.0000000000    -0.4772727273 1
    0.0000000000     0.0000000000    -0.5000000000 1
    0.5000000000     0.5000000000    -0.5000000000 1
    0.4827586207     0.4827586207    -0.4827586207 1
    0.4655172414     0.4655172414    -0.4655172414 1
    0.4482758621     0.4482758621    -0.4482758621 1
    0.4310344828     0.4310344828    -0.4310344828 1
    0.4137931034     0.4137931034    -0.4137931034 1
    0.3965517241     0.3965517241    -0.3965517241 1
    0.3793103448     0.3793103448    -0.3793103448 1
    0.3620689655     0.3620689655    -0.3620689655 1
    0.3448275862     0.3448275862    -0.3448275862 1
    0.3275862069     0.3275862069    -0.3275862069 1
    0.3103448276     0.3103448276    -0.3103448276 1
    0.2931034483     0.2931034483    -0.2931034483 1
    0.2758620690     0.2758620690    -0.2758620690 1
    0.2586206897     0.2586206897    -0.2586206897 1
    0.2413793103     0.2413793103    -0.2413793103 1
    0.2241379310     0.2241379310    -0.2241379310 1
    0.2068965517     0.2068965517    -0.2068965517 1
    0.1896551724     0.1896551724    -0.1896551724 1
    0.1724137931     0.1724137931    -0.1724137931 1
    0.1551724138     0.1551724138    -0.1551724138 1
    0.1379310345     0.1379310345    -0.1379310345 1
    0.1206896552     0.1206896552    -0.1206896552 1
    0.1034482759     0.1034482759    -0.1034482759 1
    0.0862068966     0.0862068966    -0.0862068966 1
    0.0689655172     0.0689655172    -0.0689655172 1
    0.0517241379     0.0517241379    -0.0517241379 1
    0.0344827586     0.0344827586    -0.0344827586 1
    0.0172413793     0.0172413793    -0.0172413793 1
    0.0000000000     0.0000000000     0.0000000000 1
    0.0000000000     0.0185185185    -0.0185185185 1
    0.0000000000     0.0370370370    -0.0370370370 1
    0.0000000000     0.0555555556    -0.0555555556 1
    0.0000000000     0.0740740741    -0.0740740741 1
    0.0000000000     0.0925925926    -0.0925925926 1
    0.0000000000     0.1111111111    -0.1111111111 1
    0.0000000000     0.1296296296    -0.1296296296 1
    0.0000000000     0.1481481481    -0.1481481481 1
    0.0000000000     0.1666666667    -0.1666666667 1
    0.0000000000     0.1851851852    -0.1851851852 1
    0.0000000000     0.2037037037    -0.2037037037 1
    0.0000000000     0.2222222222    -0.2222222222 1
    0.0000000000     0.2407407407    -0.2407407407 1
    0.0000000000     0.2592592593    -0.2592592593 1
    0.0000000000     0.2777777778    -0.2777777778 1
    0.0000000000     0.2962962963    -0.2962962963 1
    0.0000000000     0.3148148148    -0.3148148148 1
    0.0000000000     0.3333333333    -0.3333333333 1
    0.0000000000     0.3518518519    -0.3518518519 1
    0.0000000000     0.3703703704    -0.3703703704 1
    0.0000000000     0.3888888889    -0.3888888889 1
    0.0000000000     0.4074074074    -0.4074074074 1
    0.0000000000     0.4259259259    -0.4259259259 1
    0.0000000000     0.4444444444    -0.4444444444 1
    0.0000000000     0.4629629630    -0.4629629630 1
    0.0000000000     0.4814814815    -0.4814814815 1
    0.0000000000     0.5000000000    -0.5000000000 1
    0.5000000000     0.0000000000    -0.5000000000 1
    0.4800000000     0.0000000000    -0.4800000000 1
    0.4600000000     0.0000000000    -0.4600000000 1
    0.4400000000     0.0000000000    -0.4400000000 1
    0.4200000000     0.0000000000    -0.4200000000 1
    0.4000000000     0.0000000000    -0.4000000000 1
    0.3800000000     0.0000000000    -0.3800000000 1
    0.3600000000     0.0000000000    -0.3600000000 1
    0.3400000000     0.0000000000    -0.3400000000 1
    0.3200000000     0.0000000000    -0.3200000000 1
    0.3000000000     0.0000000000    -0.3000000000 1
    0.2800000000     0.0000000000    -0.2800000000 1
    0.2600000000     0.0000000000    -0.2600000000 1
    0.2400000000     0.0000000000    -0.2400000000 1
    0.2200000000     0.0000000000    -0.2200000000 1
    0.2000000000     0.0000000000    -0.2000000000 1
    0.1800000000     0.0000000000    -0.1800000000 1
    0.1600000000     0.0000000000    -0.1600000000 1
    0.1400000000     0.0000000000    -0.1400000000 1
    0.1200000000     0.0000000000    -0.1200000000 1
    0.1000000000     0.0000000000    -0.1000000000 1
    0.0800000000     0.0000000000    -0.0800000000 1
    0.0600000000     0.0000000000    -0.0600000000 1
    0.0400000000     0.0000000000    -0.0400000000 1
    0.0200000000     0.0000000000    -0.0200000000 1
    0.0000000000     0.0000000000     0.0000000000 1
   -0.0277777778     0.0277777778     0.0000000000 1
   -0.0555555556     0.0555555556     0.0000000000 1
   -0.0833333333     0.0833333333     0.0000000000 1
   -0.1111111111     0.1111111111     0.0000000000 1
   -0.1388888889     0.1388888889     0.0000000000 1
   -0.1666666667     0.1666666667     0.0000000000 1
   -0.1944444444     0.1944444444     0.0000000000 1
   -0.2222222222     0.2222222222     0.0000000000 1
   -0.2500000000     0.2500000000     0.0000000000 1
   -0.2777777778     0.2777777778     0.0000000000 1
   -0.3055555556     0.3055555556     0.0000000000 1
   -0.3333333333     0.3333333333     0.0000000000 1
   -0.3611111111     0.3611111111     0.0000000000 1
   -0.3888888889     0.3888888889     0.0000000000 1
   -0.4166666667     0.4166666667     0.0000000000 1
   -0.4444444444     0.4444444444     0.0000000000 1
   -0.4722222222     0.4722222222     0.0000000000 1
   -0.5000000000     0.5000000000     0.0000000000 1
